K=5;
N=7;
P=[16 9 25 22 17];
R=[33 42 46 21 4];
A=[4 4 4 2 5];
C=[22 7 27 27 26];
M=[
	[0 47 2 43 5 32 15]
	[47 0 11 50 34 21 26]
	[2 11 0 24 19 24 29]
	[43 50 24 0 45 29 19]
	[5 34 19 45 0 42 20]
	[32 21 24 29 42 0 43]
	[15 26 29 19 20 43 0]
];